102
38
84
133
137
422
430
431
437
439
443
450
490
598
653
654
733
746
747
991
1013
1041
1286
1291
1316
1317
1389
1392
1418
1555
1556
1558
1586
1589
1610
1615
1617
1644
1645
1708
1737
1739
1823
1886
2046
2249
2315
2316
2433
2437
2575
2577
2586
2604
2648
2650
2651
2653
2697
2759
2761
2763
2799
2837
2839
2881
2886
2958
3032
3040
3316
3434
3437
3551
3567
3591
3592
3614
3620
3625
3626
3629
3665
3670
3680
3747
3762
3775
3776
3788
3789
3791
3810
3811
3878
3989
3995
4181
4182
4184
4346
4351
4355